N = 7;
H = 5;
T = 2;

avail = array3d(1..N, 1..H, 1..T, [4, 4, 7, 9, 7, 7, 4, 9, 9, 10, 6, 0, 2, 5, 10, 2, 8, 1, 6, 1, 1, 1, 8, 4, 8, 0, 0, 10, 10, 3, 10, 3, 8, 10, 7, 1, 0, 1, 6, 3, 4, 1, 1, 7, 4, 9, 8, 5, 9, 7, 1, 8, 9, 5, 3, 2, 1, 0, 4, 6, 7, 5, 7, 3, 6, 9, 1, 8, 7, 1]);

r = array2d(1..H, 1..T, [4, 1, 0, 2, 1, 2, 3, 3, 0, 3]);
